letting n be 8
letting initial be
[[0, 2, 2, 2, 2, 2, 2, 2], [2, 2, 2, 2, 1, 2, 2, 2], [1, 2, 1, 2, 2, 2, 2, 1], [2, 2, 2, 2, 2, 2, 0, 2], [1, 2, 2, 2, 1, 2, 2, 2], [2, 2, 1, 1, 2, 2, 2, 2], [2, 2, 1, 2, 2, 2, 2, 0], [2, 1, 2, 2, 0, 2, 0, 1]]
